 NOTE: Siesta V5 introduces some new defaults for basis-set generation
 NOTE: which might lead to slightly different numerical results.
 NOTE: Please see the manual for full details and compatibility measures.

reinit: Reading from standard input
reinit: Dumping input in INPUT_TMP.58690
************************** Dump of input data file ****************************
SystemName	Mn2CTx
SystemLabel	Mn2CTx
DM.InitialSpinPol	0.2
DM.MixingWeight	0.1
DM.NumberPulay	5
DM.Tolerance	1.0E-4
DM.UseSaveDM	True
ElectronicTemperature	300 K
MD.ConstantVolume	False
MD.MaxForceTol	0.04 eV/Ang
MD.MaxStressTol	1.0 GPa
MD.NumCGsteps	100
MD.TypeOfRun	CG
MD.VariableCell	True
MaxSCFIterations	200
PAO.BasisSize	DZP
PAO.EnergyShift	0.01 Ry
PAO.SoftDefault	True
PAO.SplitNorm	0.15
SCF.DM.Tolerance	1.0E-4
SCF.EDM.Tolerance	1.0E-4 eV
SCF.H.Tolerance	1.0E-4 eV
SaveDeltaRho	True
SaveElectrostaticPotential	True
SaveRho	True
SolutionMethod	diagon
WriteDenchar	True
WriteEigenvalues	True
XC.functional	GGA
XML.Write	True
SCFMustConverge	True
Spin	polarized
XC.functional	GGA
XC.authors	PW91
MeshCutoff	2040.8539518275434	eV
PAO.EnergyShift	0.01	eV
NumberOfSpecies	4
NumberOfAtoms	7
%block ChemicalSpecieslabel
    1 25 Mn.1 Mn.1.psml
    2 6 C.2 C.2.psml
    3 8 O.3 O.3.psml
    4 1 H.4 H.4.psml
%endblock ChemicalSpecieslabel
%block PAO.BasisSizes
    Mn.1	DZP
    C.2	DZP
    O.3	DZP
    H.4	DZP
%endblock PAO.BasisSizes
LatticeConstant	1.0 Ang
%block LatticeVectors
    3.2 0.0 0.0
    -1.6 2.7712812921102037 0.0
    0.0 0.0 25.0
%endblock LatticeVectors
AtomicCoordinatesFormat	Ang
%block AtomicCoordinatesAndAtomicSpecies
    -1.480297366166875e-17 1.8475208614068024 10.0 1
    1.5999999999999999 0.9237604307034012 11.25 1
    0.0 0.0 12.5 2
    -1.480297366166875e-17 1.8475208614068024 13.750000000000002 3
    1.5999999999999999 0.9237604307034012 8.75 3
    -1.480297366166875e-17 1.8475208614068024 15.0 4
    1.5999999999999999 0.9237604307034012 7.5 4
%endblock AtomicCoordinatesAndAtomicSpecies
%block DM.InitSpin
%endblock DM.InitSpin
#KPoint grid
%block kgrid_Monkhorst_Pack
     6       0       0  0.0
     0       6       0  0.0
     0       0       1  0.0
%endblock kgrid_Monkhorst_Pack
************************** End of input data file *****************************
*** WARNING:  FDF module: fdf_read: block DM.InitSpin is empty...

reinit: -----------------------------------------------------------------------
reinit: System Name: Mn2CTx
reinit: -----------------------------------------------------------------------
reinit: System Label: Mn2CTx
reinit: -----------------------------------------------------------------------

NOTE on units for spin output:
{S} is the spin magnetic moment, in units of the Bohr magneton,
assuming a g-factor for the electron spin of exactly 2.
The spin magnetic moment is then numerically equal to the charge inbalance,
in units of electrons, between the spin-up and -down channels.

initatom: Reading input for the pseudopotentials and atomic orbitals ----------
Species number:   1 Atomic number:   25 Label: Mn.1
Species number:   2 Atomic number:    6 Label: C.2
Species number:   3 Atomic number:    8 Label: O.3
Species number:   4 Atomic number:    1 Label: H.4

Ground state valence configuration (from tables):   4s02  4p00  3d05  4f00
Ground state valence configuration (from tables):   2s02  2p02  3d00  4f00
Ground state valence configuration (from tables):   2s02  2p04  3d00  4f00
Ground state valence configuration (from tables):   1s01  2p00  3d00  4f00

---- Processing specs for species: Mn.1
Reading pseudopotential information in PSML from:
  Mn.1.psml
PSML file version: 1.1
GGA--PBE XC_GGA_X_PBE--XC_GGA_C_PBE pb
PSML uuid: e5ebd880-be41-11e7-659b-074ddfc7bd15
Semicore shell(s) with  8 electrons included in the valence for Mn.1

---- Processing specs for species: C.2
Reading pseudopotential information in PSML from:
  C.2.psml
PSML file version: 1.1
GGA--PBE XC_GGA_X_PBE--XC_GGA_C_PBE pb
PSML uuid: 297821e0-be41-11e7-6802-e1ff7dfff095

---- Processing specs for species: O.3
Reading pseudopotential information in PSML from:
  O.3.psml
PSML file version: 1.1
GGA--PBE XC_GGA_X_PBE--XC_GGA_C_PBE pb
PSML uuid: 3cff85a0-be41-11e7-6c5c-1b1fe64d18ef

---- Processing specs for species: H.4
Reading pseudopotential information in PSML from:
  H.4.psml
PSML file version: 1.1
GGA--PBE XC_GGA_X_PBE--XC_GGA_C_PBE pb
PSML uuid: f95fa9b0-be40-11e7-634a-9594ffff953f
resizes: Read basis size for species Mn.1 = dzp
resizes: Read basis size for species C.2 = dzp
resizes: Read basis size for species O.3 = dzp
resizes: Read basis size for species H.4 = dzp

---- Pseudopotential check for Mn

Pseudized shells:
3s( 2.00) rc: 1.41
3p( 6.00) rc: 1.21
3d( 5.00) rc: 1.61
Valence configuration for ps generation: 3s:3p:3d:4s: Total charge:  15.000000
Semicore shell(s): 3s 3p
Fallback to non-perturbative polarization scheme for Mn.1
Please see the manual if this is not desired in principle

[...]

Pseudized shells:
2s( 2.00) rc: 1.20
2p( 2.00) rc: 1.26
Valence configuration for ps generation: 2s:2p: Total charge:   4.000000

[...]

Pseudized shells:
2s( 2.00) rc: 1.36
2p( 4.00) rc: 1.46
3d( 0.00) rc: 1.26
Valence configuration for ps generation: 2s:2p: Total charge:   6.000000

---- Pseudopotential check for H

Pseudized shells:
1s( 1.00) rc: 1.01
2p( 0.00) rc: 0.71
Valence configuration for ps generation: 1s: Total charge:   1.000000
For Mn.1, standard SIESTA heuristics set lmxkb to 3
 (one more than the basis l, including polarization orbitals).
Use PS.lmax or PS.KBprojectors blocks to override.
For C.2, standard SIESTA heuristics set lmxkb to 3
 (one more than the basis l, including polarization orbitals).
Use PS.lmax or PS.KBprojectors blocks to override.
For O.3, standard SIESTA heuristics set lmxkb to 3
 (one more than the basis l, including polarization orbitals).
Use PS.lmax or PS.KBprojectors blocks to override.
For H.4, standard SIESTA heuristics set lmxkb to 2
 (one more than the basis l, including polarization orbitals).
Use PS.lmax or PS.KBprojectors blocks to override.
Mn.1.psml pseudopotential only contains V_ls up to l=2 -- lmxkb reset.
C.2.psml pseudopotential only contains V_ls up to l=1 -- lmxkb reset.
O.3.psml pseudopotential only contains V_ls up to l=2 -- lmxkb reset.
H.4.psml pseudopotential only contains V_ls up to l=1 -- lmxkb reset.

<basis_specs>
Mn.1                 Z=  25    Mass=  54.938        Charge= 0.17977+309
Lmxo=2 Lmxkb= 2    BasisType=split      Semic=T
L=0  Nsemic=1  Cnfigmx=4
          i=1  nzeta=1  polorb=0  (3s)  (semicore shell)
            splnorm:   0.15000
               vcte:    40.000
               rinn:  -0.90000
               qcoe:    0.0000
               qyuk:    0.0000
               qwid:   0.10000E-01
                rcs:    0.0000
            lambdas:    1.0000
          i=2  nzeta=2  polorb=0  (4s)  (to be polarized non-perturbatively)
            splnorm:   0.15000
               vcte:    40.000
               rinn:  -0.90000
               qcoe:    0.0000
               qyuk:    0.0000
               qwid:   0.10000E-01
                rcs:    0.0000      0.0000
            lambdas:    1.0000      1.0000
L=1  Nsemic=1  Cnfigmx=4
          i=1  nzeta=1  polorb=0  (3p)  (semicore shell)
            splnorm:   0.15000
               vcte:    40.000
               rinn:  -0.90000
               qcoe:    0.0000
               qyuk:    0.0000
               qwid:   0.10000E-01
                rcs:    0.0000
            lambdas:    1.0000
          i=2  nzeta=1  polorb=0  (4p)  (non-perturbative polarization shell)
            splnorm:   0.15000
               vcte:    40.000
               rinn:  -0.90000
               qcoe:    0.0000
               qyuk:    0.0000
               qwid:   0.10000E-01
                rcs:    0.0000
            lambdas:    1.0000
L=2  Nsemic=0  Cnfigmx=3
          i=1  nzeta=2  polorb=0  (3d)
            splnorm:   0.15000
               vcte:    40.000
               rinn:  -0.90000
               qcoe:    0.0000
               qyuk:    0.0000
               qwid:   0.10000E-01
                rcs:    0.0000      0.0000
            lambdas:    1.0000      1.0000
L=0  Nkbl=2  erefs: 0.17977+309 0.17977+309
L=1  Nkbl=2  erefs: 0.17977+309 0.17977+309
L=2  Nkbl=1  erefs: 0.17977+309
</basis_specs>

Using PAO.SplitTailNorm
atom: Called for Mn.1                  (Z =  25)
Maximum radius (at nrval) set to   50.00000 8518

read_vps: Pseudopotential generation method:
read_vps: ONCVPSP-3.Hamann's oncvpsp
Valence charge in pseudo generation:   15.00000

read_vps: Pseudopotential includes a core correction:
read_vps: Pseudo-core for xc-correction

xc_check: Exchange-correlation functional:
xc_check: GGA Perdew-Wang 1991
xc_check: WARNING: Pseudopotential generated with GGA PBE functional
Got Vlocal (oncv-fit) from psml data
Choosing vlocal chloc cutoff:  3.504263
qtot up to nchloc:   15.00032895
atom: Maximum radius for chlocal:    3.50426
atom: Maximum radius for r*vlocal+2*Zval:    3.50426
Reading KB projs from Mn.1 psml data
Using scalar-relativistic projectors in PSML file

PSML: Kleinman-Bylander projectors:
   l= 0   rc=  1.427391   Ekb= 18.471374
   l= 0   rc=  1.430269   Ekb=  3.121111
   l= 1   rc=  1.224702   Ekb=  3.156115
   l= 1   rc=  1.224702   Ekb= -1.424352
   l= 2   rc=  1.630219   Ekb=-13.224142
   l= 2   rc=  1.630219   Ekb= -4.330632

PSML: Total number of  Kleinman-Bylander projectors:  18
atom: -------------------------------------------------------------------------

atom: SANKEY-TYPE ORBITALS:
atom: Selected multiple-zeta basis: split

SPLIT: Orbitals with angular momentum L= 0

SPLIT: Basis orbitals for state 3s

SPLIT: PAO cut-off radius determined from an
SPLIT: energy shift=  0.010000 Ry
Split based on tail norm

   izeta = 1
                 lambda =    1.000000
                     rc =    2.476385
                 energy =   -6.308448
                kinetic =    2.913204
    potential(screened) =   -9.221652
       potential(ionic) =  -33.651216

[...]

   izeta = 2
                 rmatch =    4.829589
              splitnorm =    0.150000
                 energy =   -0.286694
                kinetic =    2.270086
    potential(screened) =   -2.556780
       potential(ionic) =  -17.117436

[...]

SPLIT: Basis orbitals for state 3p

[...]

SPLIT: Basis orbitals for state 4p
SPLIT: Non-perturbative polarization orbs for state 4s
SPLIT: rc(1st zeta) (re)set to: 6.6149 (expansion factor: 1.0000)
Split based on tail norm

[...]

SPLIT: Basis orbitals for state 3d

[...]

   izeta = 2
                 rmatch =    2.732390
              splitnorm =    0.150000
                 energy =   -0.333711
                kinetic =   11.919152
    potential(screened) =  -12.252862
       potential(ionic) =  -34.920847
atom: Total number of Sankey-type orbitals: 19

atm_pop: Valence configuration (for local Pseudopot. screening):
 3s( 2.00) 4s( 2.00)
 3p( 6.00) 4p( 0.00)
 3d( 5.00)
Vna: chval, zval:   15.00000  15.00000

Vna:  Cut-off radius for the neutral-atom potential:   6.614864
comcore: Pseudo-core radius Rcore=  2.115123

atom: _________________________________________________________________________

<basis_specs>
[...]
   scf:    9    -7025.370464    -7025.370464    -7025.395594  0.000008 -2.171194  0.000628
     spin moment: {S} , |S| = {        0.0        0.0    0.00000 }     0.00000
   scf:   10    -7025.370463    -7025.370464    -7025.395594  0.000011 -2.171170  0.000574
     spin moment: {S} , |S| = {        0.0        0.0    0.00000 }     0.00000
   scf:   11    -7025.370463    -7025.370463    -7025.395594  0.000005 -2.171166  0.000431
     spin moment: {S} , |S| = {        0.0        0.0    0.00000 }     0.00000
   scf:   12    -7025.370463    -7025.370463    -7025.395594  0.000004 -2.171164  0.000437
     spin moment: {S} , |S| = {        0.0        0.0    0.00000 }     0.00000
   scf:   13    -7025.370463    -7025.370463    -7025.395594  0.000004 -2.171149  0.000290
     spin moment: {S} , |S| = {        0.0        0.0    0.00000 }     0.00000
   scf:   14    -7025.370463    -7025.370463    -7025.395594  0.000006 -2.171146  0.000093
     spin moment: {S} , |S| = {        0.0        0.0    0.00000 }     0.00000

SCF Convergence by DM+H criterion
max |DM_out - DM_in|         :     0.0000056735
max |H_out - H_in|      (eV) :     0.0000929846
SCF cycle converged after 14 iterations

Using DM_out to compute the final energy and forces
No. of atoms with KB's overlaping orbs in proc 0. Max # of overlaps:      57     253

siesta: E_KS(eV) =            -7025.3705

siesta: Atomic forces (eV/Ang):
   Tot    0.000015   -0.000006    0.017664
   Max    0.027986
   Res    0.011403    sqrt( Sum f_i^2 / 3N )
   Max    0.027986    constrained

Stress tensor Voigt[x,y,z,yz,xz,xy] (kbar):        0.30        0.49       -0.38        0.01       -0.02        0.16
(Free)E + p*V (eV/cell)    -7025.4106
Target enthalpy (eV/cell)    -7025.3956

siesta: Stress tensor (static) (eV/Ang**3):
         0.000190    0.000099   -0.000014
         0.000099    0.000305    0.000008
        -0.000014    0.000008   -0.000236

siesta: Pressure (static):         -0.13819459  kBar

siesta: Stress tensor (total) (eV/Ang**3):
         0.000190    0.000099   -0.000014
         0.000099    0.000305    0.000008
        -0.000014    0.000008   -0.000236

siesta: Pressure (total):         -0.13819459  kBar

outcoor: Relaxed atomic coordinates (Ang):
   -0.00653313    1.75532280    8.91578327   1       1  Mn.1
    1.51966215    0.87417355   10.63560503   1       2  Mn.1
   -0.00170905    0.00098680    9.77322860   2       3  C.2
   -0.00501147    1.75444420   11.86072063   3       4  O.3
    1.51631326    0.87610693    7.68528158   3       5  O.3
   -0.00876910    1.75661363   12.84059704   4       6  H.4
    1.51850077    0.87484397    6.70479505   4       7  H.4

outcell: Unit cell vectors (Ang):
        3.040640   -0.003963   -0.000946
       -1.523752    2.631289    0.000946
       -0.007394    0.004269   21.712712

outcell: Cell vector modules (Ang)   :    3.040642    3.040642   21.712714
outcell: Cell angles (23,13,12) (deg):     89.9626     90.0374    120.1494
outcell: Cell volume (Ang**3)        :    173.5880

siesta: Eigenvalues (eV):
  ik is       eps
   1  1  -81.9068  -81.8629  -50.8186  -50.7783  -50.6937  -50.5650  -50.5346  -50.5150  -22.9402  -22.8976
         -14.3142  -11.1622  -11.0228   -8.5694   -7.6737   -7.3795   -7.2095   -6.6187   -6.0195   -5.7606
   -4.7619   -3.3214   -2.7070   -2.2015   -2.0607   -1.6524   -1.4136    0.0488    0.8534    2.0888
    2.1695    2.3377    7.8308    8.1022    9.2454    9.7640   10.9288   12.5553   13.2466   13.7017
   15.6959   16.1214   16.8197   17.9058   18.3738   18.9913   19.2411   23.1195   24.3893   24.7735
   27.1677   29.9034   30.7419   31.9516   32.2090   33.4625   34.6863   34.8539   35.6461   37.4409
   39.0264   39.1672   42.1643   43.7617   43.9077   45.5828   45.6348   47.7528   49.6011   51.3690
   52.0386   54.5754   58.4316   59.2550   61.2353   62.6160   66.4282   67.7128   68.5675   72.1283
   78.0876   84.4746   86.0863   89.2848   92.5744   96.0444  122.6154
   1  2  -81.9068  -81.8629  -50.8186  -50.7783  -50.6937  -50.5650  -50.5346  -50.5150  -22.9402  -22.8976
         -14.3142  -11.1622  -11.0228   -8.5694   -7.6737   -7.3795   -7.2095   -6.6187   -6.0195   -5.7606
   -4.7619   -3.3214   -2.7070   -2.2015   -2.0607   -1.6524   -1.4136    0.0488    0.8534    2.0888
    2.1695    2.3377    7.8308    8.1022    9.2454    9.7640   10.9288   12.5553   13.2466   13.7017
   15.6959   16.1214   16.8197   17.9058   18.3738   18.9913   19.2411   23.1195   24.3893   24.7735
   27.1677   29.9034   30.7419   31.9516   32.2090   33.4625   34.6863   34.8539   35.6461   37.4409
   39.0264   39.1672   42.1643   43.7617   43.9077   45.5828   45.6348   47.7528   49.6011   51.3690
   52.0386   54.5754   58.4316   59.2550   61.2353   62.6160   66.4282   67.7128   68.5675   72.1283
   78.0876   84.4746   86.0863   89.2848   92.5744   96.0444  122.6154
   2  1  -81.9249  -81.8527  -50.8198  -50.6993  -50.6652  -50.5504  -50.5318  -50.5095  -23.1759  -23.1199
         -15.1391  -11.5803  -10.5495   -7.7895   -7.6190   -7.3226   -6.3902   -6.2220   -6.0705   -5.5969
   -4.3332   -3.8679   -2.6804   -2.2023   -1.8802   -1.8549   -1.7430   -0.5605    0.4135    0.9301
    2.4614    2.9392    5.9422    7.3477    9.5183   11.8030   12.3424   12.6157   14.5405   15.8773
   17.2743   18.0072   18.6283   19.0748   19.4697   19.6050   20.0530   21.6202   21.9739   25.1109
   26.8104   26.9589   27.9923   29.8412   30.9293   34.4778   36.1423   36.1993   37.4100   38.8226
   39.1136   39.8843   41.0768   42.8600   45.8657   46.0405   46.5731   50.7440   51.3129   51.9297
   53.3937   54.9611   56.2478   60.2173   62.6250   63.6850   66.4722   67.6262   71.2521   79.5098
   82.4264   84.3310   86.0661   86.9420   89.9791   92.5066  117.0257
   2  2  -81.9249  -81.8527  -50.8198  -50.6993  -50.6652  -50.5504  -50.5318  -50.5095  -23.1759  -23.1199
         -15.1391  -11.5803  -10.5495   -7.7895   -7.6190   -7.3226   -6.3902   -6.2220   -6.0705   -5.5969
   -4.3332   -3.8679   -2.6804   -2.2023   -1.8802   -1.8549   -1.7430   -0.5605    0.4135    0.9301
    2.4614    2.9392    5.9422    7.3477    9.5183   11.8030   12.3424   12.6157   14.5405   15.8773
   17.2743   18.0072   18.6283   19.0748   19.4697   19.6050   20.0530   21.6202   21.9739   25.1109
   26.8104   26.9589   27.9923   29.8412   30.9293   34.4778   36.1423   36.1993   37.4100   38.8226
   39.1136   39.8843   41.0768   42.8600   45.8657   46.0405   46.5731   50.7440   51.3129   51.9297
   53.3937   54.9611   56.2478   60.2173   62.6250   63.6850   66.4722   67.6262   71.2521   79.5098
   82.4264   84.3310   86.0661   86.9420   89.9791   92.5066  117.0257
   3  1  -81.9358  -81.8477  -50.8248  -50.6490  -50.6459  -50.5309  -50.5279  -50.5200  -23.2930  -23.2270
         -15.4832  -11.8230  -10.1267   -8.0182   -8.0010   -6.5712   -6.3224   -6.3224   -4.9238   -4.9195
   -4.4745   -4.4670   -2.6693   -1.9179   -1.8926   -1.8530   -1.8473   -1.2179   -0.2837    0.3620
    3.3975    3.4125    4.7764    6.8391    8.9362   12.6170   13.1154   13.5937   13.6855   18.6052
   19.0595   19.2371   19.2925   19.4453   19.5501   20.6875   20.7343   21.4602   21.5299   22.0415
   25.3003   25.3824   28.8121   29.0344   29.1214   32.2521   36.2366   36.3073   36.5509   40.0331
   40.2302   40.3244   41.8191   41.9347   46.6650   46.8264   49.8303   50.1857   51.9449   52.2377
   57.3634   58.3962   58.4453   60.4619   61.3189   61.4144   66.9436   67.0150   72.0253   81.6897
   82.2339   87.9788   88.2555   90.6105   95.2679  108.7314  109.8296
   3  2  -81.9358  -81.8477  -50.8248  -50.6490  -50.6459  -50.5309  -50.5279  -50.5200  -23.2930  -23.2270
         -15.4832  -11.8230  -10.1267   -8.0182   -8.0010   -6.5712   -6.3224   -6.3224   -4.9238   -4.9195
   -4.4745   -4.4670   -2.6693   -1.9179   -1.8926   -1.8530   -1.8473   -1.2179   -0.2837    0.3620
    3.3975    3.4125    4.7764    6.8391    8.9362   12.6170   13.1154   13.5937   13.6855   18.6052
   19.0595   19.2371   19.2925   19.4453   19.5501   20.6875   20.7343   21.4602   21.5299   22.0415
   25.3003   25.3824   28.8121   29.0344   29.1214   32.2521   36.2366   36.3073   36.5509   40.0331
   40.2302   40.3244   41.8191   41.9347   46.6650   46.8264   49.8303   50.1857   51.9449   52.2377
   57.3634   58.3962   58.4453   60.4619   61.3189   61.4144   66.9436   67.0150   72.0253   81.6897
   82.2339   87.9788   88.2555   90.6105   95.2679  108.7314  109.8296
   4  1  -81.8914  -81.8737  -50.8249  -50.8128  -50.7068  -50.5477  -50.5425  -50.5337  -22.8214  -22.7821
         -13.7875  -11.2446  -10.8983   -9.2899   -8.1605   -7.2977   -7.1186   -6.6686   -6.0449   -5.5453
   -5.0256   -3.0785   -2.6130   -2.2883   -2.2438   -1.2546   -1.0719   -0.6879    0.7867    1.8443
    3.3566    3.5578    7.2336    7.2743    8.5266    9.9515    9.9698   12.0965   12.7350   13.1042
   15.1291   15.1814   16.6975   17.4662   18.2257   18.5304   19.6493   22.8785   25.3798   26.8958
   27.7725   28.0248   28.7591   31.4357   31.9561   32.9875   34.0669   35.2609   35.7021   37.4879
[...]
    3.3396    3.5393    7.2274    7.2623    8.5233    9.9690    9.9707   12.1213   12.7283   13.0828
   15.1761   15.2149   16.7657   17.5361   18.2048   18.5809   19.6342   22.8549   25.3905   26.8893
   27.7305   28.0901   28.7503   31.4296   31.9107   33.0609   34.1871   35.2776   35.7107   37.4595
   40.4366   41.0021   41.9786   43.6178   43.9267   45.2270   46.3431   47.0589   48.4692   51.6853
   53.2095   54.6634   58.5537   60.4367   62.9477   63.7184   66.2150   66.9559   68.7493   70.3736
   72.0687   81.1074   83.5670   87.3810   95.1950  105.2893  106.7636
  22  2  -81.8927  -81.8730  -50.8245  -50.8101  -50.7078  -50.5535  -50.5355  -50.5350  -22.8251  -22.7857
         -13.7964  -11.2491  -10.9026   -9.2933   -8.1552   -7.2842   -7.1118   -6.6641   -6.0218   -5.5316
   -5.0264   -3.0781   -2.6072   -2.2985   -2.2457   -1.2455   -1.0934   -0.7112    0.7477    1.8531
    3.3396    3.5393    7.2274    7.2623    8.5233    9.9690    9.9707   12.1213   12.7283   13.0828
   15.1761   15.2149   16.7657   17.5361   18.2048   18.5809   19.6342   22.8549   25.3905   26.8893
   27.7305   28.0901   28.7503   31.4296   31.9107   33.0609   34.1871   35.2776   35.7107   37.4595
   40.4366   41.0021   41.9786   43.6178   43.9267   45.2270   46.3431   47.0589   48.4692   51.6853
   53.2095   54.6634   58.5537   60.4367   62.9477   63.7184   66.2150   66.9559   68.7493   70.3736
   72.0687   81.1074   83.5670   87.3810   95.1950  105.2893  106.7636
siesta: Fermi energy =      -2.171146 eV

siesta: Program's energy decomposition (eV):
siesta: Ebs     =     -1224.435365
siesta: Eions   =      9678.753412
siesta: Ena     =      1071.377392
siesta: Ekin    =      3373.743084
siesta: Enl     =      -541.789705
siesta: Eso     =         0.000000
siesta: Edftu   =         0.000000
siesta: DEna    =        52.305787
siesta: DUscf   =         3.302044
siesta: DUext   =         0.000000
siesta: Ex      =     -1229.356178
siesta: Ec      =       -76.199474
siesta: Exc     =     -1305.555652
siesta: EbV     =         0.000000
siesta: eta*DQ  =         0.000000
siesta: Emadel  =         0.000000
siesta: Emeta   =         0.000000
siesta: Emolmec =         0.000000
siesta: Ekinion =         0.000000
siesta: Eharris =     -7025.370463
siesta: Etot    =     -7025.370463
siesta: FreeEng =     -7025.395594

siesta: Final energy (eV):
siesta:  Band Struct. =   -1224.435365
siesta:       Kinetic =    3373.743084
siesta:       Hartree =   29612.981246
siesta:         Edftu =       0.000000
siesta:       Eso     =       0.000000
siesta:    Ext. field =       0.000000
siesta:         Exch. =   -1229.356178
siesta:         Corr. =     -76.199474
siesta:     Bulk bias =       0.000000
siesta:   Exch.-corr. =   -1305.555652
siesta:  Ion-electron =  -62600.015099
siesta:       Ion-ion =   23893.475958
siesta:       Ekinion =       0.000000
siesta: D3 dispersion =       0.000000
siesta:         Total =   -7025.370463
siesta:         Fermi =      -2.171146

siesta: Stress tensor (static) (eV/Ang**3):
siesta:     0.000190    0.000099   -0.000014
siesta:     0.000099    0.000305    0.000008
siesta:    -0.000014    0.000008   -0.000236

siesta: Constrained stress tensor (static) (eV/Ang**3):
siesta:     0.000190    0.000099   -0.000014
siesta:     0.000099    0.000305    0.000008
siesta:    -0.000014    0.000008   -0.000236

siesta: Cell volume =        173.587975 Ang**3

siesta: Pressure (static):
siesta:                Solid            Molecule  Units
siesta:          -0.00000094         -0.00000148  Ry/Bohr**3
siesta:          -0.00008625         -0.00013623  eV/Ang**3
siesta:          -0.13819459         -0.21826098  kBar
(Free)E+ p_basis*V_orbitals  =       -7022.846287
(Free)Eharris+ p_basis*V_orbitals  =       -7022.846287

siesta: Electric dipole (a.u.)  =    0.000001   -0.000001    0.002912
siesta: Electric dipole (Debye) =    0.000002   -0.000001    0.007403

dhscf: Vacuum level (max, mean) =   -0.850836   -0.881898 eV

cite: Please see "Mn2CTx.bib" for an exhaustive BiBTeX file.
cite: Please clearly indicate Siesta version in published work: 5.2.0-12-gaf738a07d
cite: This calculation has made use of the following articles
cite: which are encouraged to be cited in a published work.
        Primary SIESTA paper
          DOI: www.doi.org/10.1088/0953-8984/14/11/302

Routine            Calls   Time/call    Tot.time        %
siesta                 1     707.943     707.943   100.00
Setup                  1       0.271       0.271     0.04
bands                  1       0.000       0.000     0.00
KSV_init               1       0.000       0.000     0.00
IterGeom              56      12.635     707.555    99.95
geom_init             56       1.057      59.214     8.36
state_init            56       0.141       7.902     1.12
hsparse               56       0.009       0.498     0.07
overlap               56       0.125       7.021     0.99
Setup_H0              56       0.719      40.238     5.68
naefs                112       0.000       0.015     0.00
dnaefs               112       0.000       0.008     0.00
MolMec               112       0.000       0.000     0.00
kinefsm              112       0.068       7.608     1.07
nlefsm               112       0.248      27.810     3.93
DHSCF_Init            56       0.154       8.648     1.22
DHSCF1                56       0.008       0.427     0.06
InitMesh              56       0.008       0.424     0.06
INITMESH              56       0.000       0.000     0.00
DHSCF2                56       0.147       8.220     1.16
REMESH                56       0.022       1.249     0.18
REORD               6490       0.000       0.605     0.09
PHION                 56       0.104       5.825     0.82
COMM_BSC           11190       0.000       0.744     0.11
POISON              1427       0.005       6.500     0.92
fft                 2854       0.002       5.784     0.82
setup_H             1314       0.198     260.781    36.84
DHSCF               1371       0.214     293.229    41.42
DHSCF3              1371       0.198     271.290    38.32
rhoofd              1371       0.085     116.803    16.50
XC                  1371       0.026      36.072     5.10
GXC-CellXC          1371       0.026      35.747     5.05
gridxc@cellXC       1371       0.026      35.741     5.05
vmat                1370       0.080     109.597    15.48
IterSCF             1258       0.486     610.786    86.28
compute_dm          1258       0.284     356.690    50.38
diagon              1258       0.283     356.227    50.32
c-eigval           55352       0.002     107.951    15.25
c-buildHS          55352       0.001      33.165     4.68
cdiag             110704       0.002     207.660    29.33
cdiag1            110704       0.000      13.916     1.97
cdiag2            110704       0.000      50.872     7.19
cdiag3            110704       0.001     135.873    19.19
c-eigvec           55352       0.003     165.916    23.44
cdiag4             55352       0.000       5.864     0.83
c-buildD           55352       0.001      81.422    11.50
MIXER               1202       0.002       2.551     0.36
PostSCF               56       0.670      37.495     5.30
FINAL_HF              56       0.669      37.463     5.29
DHSCF4                56       0.392      21.937     3.10
dfscf                 56       0.373      20.875     2.95
overfsm               56       0.010       0.565     0.08
writeHSX              56       0.001       0.056     0.01
state_analysis        56       0.000       0.012     0.00
siesta_move           56       0.000       0.004     0.00
Analysis               1       0.116       0.116     0.02
optical                1       0.000       0.000     0.00

>> End of run:  20-JAN-2025   5:44:54
Job completed