 NOTE: Siesta V5 introduces some new defaults for basis-set generation
 NOTE: which might lead to slightly different numerical results.
 NOTE: Please see the manual for full details and compatibility measures.

reinit: Reading from standard input
reinit: Dumping input in INPUT_TMP.94284
************************** Dump of input data file ****************************
SystemName	Ti2CTx
SystemLabel	Ti2CTx
DM.InitialSpinPol	0.2
DM.MixingWeight	0.1
DM.NumberPulay	5
DM.Tolerance	1.0E-4
DM.UseSaveDM	True
ElectronicTemperature	300 K
MD.ConstantVolume	False
MD.MaxForceTol	0.04 eV/Ang
MD.MaxStressTol	1.0 GPa
MD.NumCGsteps	100
MD.TypeOfRun	CG
MD.VariableCell	True
MaxSCFIterations	200
PAO.BasisSize	DZP
PAO.EnergyShift	0.01 Ry
PAO.SoftDefault	True
PAO.SplitNorm	0.15
SCF.DM.Tolerance	1.0E-4
SCF.EDM.Tolerance	1.0E-4 eV
SCF.H.Tolerance	1.0E-4 eV
SaveDeltaRho	True
SaveElectrostaticPotential	True
SaveRho	True
SolutionMethod	diagon
WriteDenchar	True
WriteEigenvalues	True
XC.functional	GGA
XML.Write	True
SCFMustConverge	True
Spin	polarized
XC.functional	GGA
XC.authors	PW91
MeshCutoff	2040.8539518275434	eV
PAO.EnergyShift	0.01	eV
NumberOfSpecies	4
NumberOfAtoms	7
%block ChemicalSpecieslabel
    1 22 Ti.1 Ti.1.psml
    2 6 C.2 C.2.psml
    3 8 O.3 O.3.psml
    4 1 H.4 H.4.psml
%endblock ChemicalSpecieslabel
%block PAO.BasisSizes
    Ti.1	DZP
    C.2	DZP
    O.3	DZP
    H.4	DZP
%endblock PAO.BasisSizes
LatticeConstant	1.0 Ang
%block LatticeVectors
    3.2 0.0 0.0
    -1.6 2.7712812921102037 0.0
    0.0 0.0 25.0
%endblock LatticeVectors
AtomicCoordinatesFormat	Ang
%block AtomicCoordinatesAndAtomicSpecies
    -1.480297366166875e-17 1.8475208614068024 10.0 1
    1.5999999999999999 0.9237604307034012 11.25 1
    0.0 0.0 12.5 2
    -1.480297366166875e-17 1.8475208614068024 13.750000000000002 3
    1.5999999999999999 0.9237604307034012 8.75 3
    -1.480297366166875e-17 1.8475208614068024 15.0 4
    1.5999999999999999 0.9237604307034012 7.5 4
%endblock AtomicCoordinatesAndAtomicSpecies
%block DM.InitSpin
%endblock DM.InitSpin
#KPoint grid
%block kgrid_Monkhorst_Pack
     6       0       0  0.0
     0       6       0  0.0
     0       0       1  0.0
%endblock kgrid_Monkhorst_Pack
************************** End of input data file *****************************
*** WARNING:  FDF module: fdf_read: block DM.InitSpin is empty...

reinit: -----------------------------------------------------------------------
reinit: System Name: Ti2CTx
reinit: -----------------------------------------------------------------------
reinit: System Label: Ti2CTx
reinit: -----------------------------------------------------------------------

NOTE on units for spin output:
{S} is the spin magnetic moment, in units of the Bohr magneton,
assuming a g-factor for the electron spin of exactly 2.
The spin magnetic moment is then numerically equal to the charge inbalance,
in units of electrons, between the spin-up and -down channels.

initatom: Reading input for the pseudopotentials and atomic orbitals ----------
Species number:   1 Atomic number:   22 Label: Ti.1
Species number:   2 Atomic number:    6 Label: C.2
Species number:   3 Atomic number:    8 Label: O.3
Species number:   4 Atomic number:    1 Label: H.4

Ground state valence configuration (from tables):   4s02  4p00  3d02  4f00
Ground state valence configuration (from tables):   2s02  2p02  3d00  4f00
Ground state valence configuration (from tables):   2s02  2p04  3d00  4f00
Ground state valence configuration (from tables):   1s01  2p00  3d00  4f00

---- Processing specs for species: Ti.1
Reading pseudopotential information in PSML from:
  Ti.1.psml
PSML file version: 1.1
GGA--PBE XC_GGA_X_PBE--XC_GGA_C_PBE pb
PSML uuid: caed23e0-be41-11e7-4603-0bd897f88bea
Semicore shell(s) with  8 electrons included in the valence for Ti.1

---- Processing specs for species: C.2
Reading pseudopotential information in PSML from:
  C.2.psml
PSML file version: 1.1
GGA--PBE XC_GGA_X_PBE--XC_GGA_C_PBE pb
PSML uuid: 297821e0-be41-11e7-6802-e1ff7dfff095

---- Processing specs for species: O.3
Reading pseudopotential information in PSML from:
  O.3.psml
PSML file version: 1.1
GGA--PBE XC_GGA_X_PBE--XC_GGA_C_PBE pb
PSML uuid: 3cff85a0-be41-11e7-6c5c-1b1fe64d18ef

---- Processing specs for species: H.4
Reading pseudopotential information in PSML from:
  H.4.psml
PSML file version: 1.1
GGA--PBE XC_GGA_X_PBE--XC_GGA_C_PBE pb
PSML uuid: f95fa9b0-be40-11e7-634a-9594ffff953f
resizes: Read basis size for species Ti.1 = dzp
resizes: Read basis size for species C.2 = dzp
resizes: Read basis size for species O.3 = dzp
resizes: Read basis size for species H.4 = dzp

---- Pseudopotential check for Ti

Pseudized shells:
3s( 2.00) rc: 1.36
3p( 6.00) rc: 1.31
3d( 2.00) rc: 1.66
Valence configuration for ps generation: 3s:3p:3d:4s: Total charge:  12.000000
Semicore shell(s): 3s 3p
Fallback to non-perturbative polarization scheme for Ti.1
Please see the manual if this is not desired in principle

[...]

Pseudized shells:
2s( 2.00) rc: 1.20
2p( 2.00) rc: 1.26
Valence configuration for ps generation: 2s:2p: Total charge:   4.000000

[...]

Pseudized shells:
2s( 2.00) rc: 1.36
2p( 4.00) rc: 1.46
3d( 0.00) rc: 1.26
Valence configuration for ps generation: 2s:2p: Total charge:   6.000000

---- Pseudopotential check for H

Pseudized shells:
1s( 1.00) rc: 1.01
2p( 0.00) rc: 0.71
Valence configuration for ps generation: 1s: Total charge:   1.000000
For Ti.1, standard SIESTA heuristics set lmxkb to 3
 (one more than the basis l, including polarization orbitals).
Use PS.lmax or PS.KBprojectors blocks to override.
For C.2, standard SIESTA heuristics set lmxkb to 3
 (one more than the basis l, including polarization orbitals).
Use PS.lmax or PS.KBprojectors blocks to override.
For O.3, standard SIESTA heuristics set lmxkb to 3
 (one more than the basis l, including polarization orbitals).
Use PS.lmax or PS.KBprojectors blocks to override.
For H.4, standard SIESTA heuristics set lmxkb to 2
 (one more than the basis l, including polarization orbitals).
Use PS.lmax or PS.KBprojectors blocks to override.
Ti.1.psml pseudopotential only contains V_ls up to l=2 -- lmxkb reset.
C.2.psml pseudopotential only contains V_ls up to l=1 -- lmxkb reset.
O.3.psml pseudopotential only contains V_ls up to l=2 -- lmxkb reset.
H.4.psml pseudopotential only contains V_ls up to l=1 -- lmxkb reset.

<basis_specs>
Ti.1                 Z=  22    Mass=  47.867        Charge= 0.17977+309
Lmxo=2 Lmxkb= 2    BasisType=split      Semic=T
L=0  Nsemic=1  Cnfigmx=4
          i=1  nzeta=1  polorb=0  (3s)  (semicore shell)
            splnorm:   0.15000
               vcte:    40.000
               rinn:  -0.90000
               qcoe:    0.0000
               qyuk:    0.0000
               qwid:   0.10000E-01
                rcs:    0.0000
            lambdas:    1.0000
          i=2  nzeta=2  polorb=0  (4s)  (to be polarized non-perturbatively)
            splnorm:   0.15000
               vcte:    40.000
               rinn:  -0.90000
               qcoe:    0.0000
               qyuk:    0.0000
               qwid:   0.10000E-01
                rcs:    0.0000      0.0000
            lambdas:    1.0000      1.0000
L=1  Nsemic=1  Cnfigmx=4
          i=1  nzeta=1  polorb=0  (3p)  (semicore shell)
            splnorm:   0.15000
               vcte:    40.000
               rinn:  -0.90000
               qcoe:    0.0000
               qyuk:    0.0000
               qwid:   0.10000E-01
                rcs:    0.0000
            lambdas:    1.0000
          i=2  nzeta=1  polorb=0  (4p)  (non-perturbative polarization shell)
            splnorm:   0.15000
               vcte:    40.000
               rinn:  -0.90000
               qcoe:    0.0000
               qyuk:    0.0000
               qwid:   0.10000E-01
                rcs:    0.0000
            lambdas:    1.0000
L=2  Nsemic=0  Cnfigmx=3
          i=1  nzeta=2  polorb=0  (3d)
            splnorm:   0.15000
               vcte:    40.000
               rinn:  -0.90000
               qcoe:    0.0000
               qyuk:    0.0000
               qwid:   0.10000E-01
                rcs:    0.0000      0.0000
            lambdas:    1.0000      1.0000
L=0  Nkbl=2  erefs: 0.17977+309 0.17977+309
L=1  Nkbl=2  erefs: 0.17977+309 0.17977+309
L=2  Nkbl=1  erefs: 0.17977+309
</basis_specs>

Using PAO.SplitTailNorm
atom: Called for Ti.1                  (Z =  22)
Maximum radius (at nrval) set to   50.00000 8518

read_vps: Pseudopotential generation method:
read_vps: ONCVPSP-3.Hamann's oncvpsp
Valence charge in pseudo generation:   12.00000

read_vps: Pseudopotential includes a core correction:
read_vps: Pseudo-core for xc-correction

xc_check: Exchange-correlation functional:
xc_check: GGA Perdew-Wang 1991
xc_check: WARNING: Pseudopotential generated with GGA PBE functional
Got Vlocal (oncv-fit) from psml data
Choosing vlocal chloc cutoff:  3.029916
qtot up to nchloc:   12.00014688
atom: Maximum radius for chlocal:    3.02992
atom: Maximum radius for r*vlocal+2*Zval:    3.02992
Reading KB projs from Ti.1 psml data
Using scalar-relativistic projectors in PSML file

PSML: Kleinman-Bylander projectors:
   l= 0   rc=  1.375180   Ekb= 22.724697
   l= 0   rc=  1.375180   Ekb=  2.527278
   l= 1   rc=  1.326200   Ekb=  3.950805
   l= 1   rc=  1.327537   Ekb= -0.169333
   l= 2   rc=  1.683555   Ekb=-10.372181
   l= 2   rc=  1.683555   Ekb= -2.954901

PSML: Total number of  Kleinman-Bylander projectors:  18
atom: -------------------------------------------------------------------------

atom: SANKEY-TYPE ORBITALS:
atom: Selected multiple-zeta basis: split

SPLIT: Orbitals with angular momentum L= 0

SPLIT: Basis orbitals for state 3s

SPLIT: PAO cut-off radius determined from an
SPLIT: energy shift=  0.010000 Ry
Split based on tail norm

   izeta = 1
                 lambda =    1.000000
                     rc =    2.838606
                 energy =   -4.597225
                kinetic =    2.273030
    potential(screened) =   -6.870254
       potential(ionic) =  -22.987156

[...]

   izeta = 2
                 rmatch =    5.674993
              splitnorm =    0.150000
                 energy =   -0.207882
                kinetic =    1.274420
    potential(screened) =   -1.482302
       potential(ionic) =  -10.515388

[...]

SPLIT: Basis orbitals for state 3p

[...]

SPLIT: Basis orbitals for state 4p
SPLIT: Non-perturbative polarization orbs for state 4s
SPLIT: rc(1st zeta) (re)set to: 7.6104 (expansion factor: 1.0000)
Split based on tail norm

[...]

SPLIT: Basis orbitals for state 3d

[...]

   izeta = 2
                 rmatch =    3.458873
              splitnorm =    0.150000
                 energy =   -0.200848
                kinetic =    8.180935
    potential(screened) =   -8.381783
       potential(ionic) =  -23.144487
atom: Total number of Sankey-type orbitals: 19

atm_pop: Valence configuration (for local Pseudopot. screening):
 3s( 2.00) 4s( 2.00)
 3p( 6.00) 4p( 0.00)
 3d( 2.00)
Vna: chval, zval:   12.00000  12.00000

Vna:  Cut-off radius for the neutral-atom potential:   7.610407
comcore: Pseudo-core radius Rcore=  1.766828

atom: _________________________________________________________________________

<basis_specs>
[...]
   scf:    8    -4332.841617    -4332.841615    -4332.849233  0.000085 -1.704391  0.001554
     spin moment: {S} , |S| = {        0.0        0.0    0.00000 }     0.00000
   scf:    9    -4332.841616    -4332.841616    -4332.849233  0.000011 -1.704424  0.000984
     spin moment: {S} , |S| = {        0.0        0.0    0.00000 }     0.00000
   scf:   10    -4332.841616    -4332.841616    -4332.849233  0.000019 -1.704498  0.000828
     spin moment: {S} , |S| = {        0.0        0.0    0.00000 }     0.00000
   scf:   11    -4332.841616    -4332.841616    -4332.849233  0.000010 -1.704589  0.000260
     spin moment: {S} , |S| = {        0.0        0.0    0.00000 }     0.00000
   scf:   12    -4332.841616    -4332.841616    -4332.849233  0.000002 -1.704624  0.000202
     spin moment: {S} , |S| = {        0.0        0.0    0.00000 }     0.00000
   scf:   13    -4332.841616    -4332.841616    -4332.849233  0.000003 -1.704704  0.000047
     spin moment: {S} , |S| = {        0.0        0.0    0.00000 }     0.00000

SCF Convergence by DM+H criterion
max |DM_out - DM_in|         :     0.0000026658
max |H_out - H_in|      (eV) :     0.0000474086
SCF cycle converged after 13 iterations

Using DM_out to compute the final energy and forces
No. of atoms with KB's overlaping orbs in proc 0. Max # of overlaps:      59     232

siesta: E_KS(eV) =            -4332.8416

siesta: Atomic forces (eV/Ang):
   Tot   -0.000964    0.000556   -0.002350
   Max    0.021211
   Res    0.007646    sqrt( Sum f_i^2 / 3N )
   Max    0.021211    constrained

Stress tensor Voigt[x,y,z,yz,xz,xy] (kbar):        0.21        0.33       -0.38        0.03       -0.04        0.10
(Free)E + p*V (eV/cell)    -4332.8555
Target enthalpy (eV/cell)    -4332.8492

siesta: Stress tensor (static) (eV/Ang**3):
         0.000129    0.000065   -0.000028
         0.000065    0.000204    0.000016
        -0.000028    0.000016   -0.000235

siesta: Pressure (static):         -0.05237418  kBar

siesta: Stress tensor (total) (eV/Ang**3):
         0.000129    0.000065   -0.000028
         0.000065    0.000204    0.000016
        -0.000028    0.000016   -0.000235

siesta: Pressure (total):         -0.05237418  kBar

outcoor: Relaxed atomic coordinates (Ang):
   -0.00074113    1.77460599    9.33469108   1       1  Ti.1
    1.53775863    0.88635267   11.59128770   1       2  Ti.1
    0.00056106   -0.00032361   10.46317548   2       3  C.2
   -0.00060876    1.77452944   12.86799029   3       4  O.3
    1.53793968    0.88624816    8.05927568   3       5  O.3
   -0.00018204    1.77428307   13.84413668   4       6  H.4
    1.53691668    0.88683866    7.08350575   4       7  H.4

outcell: Unit cell vectors (Ang):
        3.075164   -0.001269    0.000161
       -1.538681    2.662536   -0.000161
        0.001256   -0.000725   23.251454

outcell: Cell vector modules (Ang)   :    3.075164    3.075164   23.251454
outcell: Cell angles (23,13,12) (deg):     90.0061     89.9939    120.0473
outcell: Cell volume (Ang**3)        :    190.3313

siesta: Eigenvalues (eV):
  ik is       eps
   1  1  -59.1601  -59.1275  -35.6823  -35.6288  -35.4614  -35.4008  -35.3469  -35.2925  -23.2505  -23.2391
         -12.5674  -11.2701  -11.0974   -8.2169   -7.8976   -6.8925   -6.7860   -6.0324   -5.0989   -4.4591
   -3.1163   -0.4418   -0.3096    0.0440    0.1673    0.4559    0.7791    1.1938    1.5605    2.8783
    3.3814    4.2402    7.3536    7.4447    7.8673    9.4779   11.1700   12.4801   12.8170   13.5505
   14.9191   16.3114   16.8855   17.1894   17.5539   17.6222   17.8012   21.0499   22.3209   22.6799
   24.9403   27.6639   28.0682   30.2286   30.6477   30.8755   32.8917   33.1220   33.8514   34.6861
   34.7803   37.8805   38.5159   41.3140   42.7294   43.0847   45.4153   47.9131   48.5657   50.0881
   53.1832   53.4046   57.5233   60.3440   61.1092   61.2055   65.1291   69.0925   69.9610   70.6483
   80.6590   83.2299   86.1380   88.9129   89.8715   95.4337  132.7818
   1  2  -59.1601  -59.1275  -35.6823  -35.6288  -35.4614  -35.4008  -35.3469  -35.2925  -23.2505  -23.2391
         -12.5674  -11.2701  -11.0974   -8.2169   -7.8976   -6.8925   -6.7860   -6.0324   -5.0989   -4.4591
   -3.1163   -0.4418   -0.3096    0.0440    0.1673    0.4559    0.7791    1.1938    1.5605    2.8783
    3.3814    4.2402    7.3536    7.4447    7.8673    9.4779   11.1700   12.4801   12.8170   13.5505
   14.9191   16.3114   16.8855   17.1894   17.5539   17.6222   17.8012   21.0499   22.3209   22.6799
   24.9403   27.6639   28.0682   30.2286   30.6477   30.8755   32.8917   33.1220   33.8514   34.6861
   34.7803   37.8805   38.5159   41.3140   42.7294   43.0847   45.4153   47.9131   48.5657   50.0881
   53.1832   53.4046   57.5233   60.3440   61.1092   61.2055   65.1291   69.0925   69.9610   70.6483
   80.6590   83.2299   86.1380   88.9129   89.8715   95.4337  132.7818
   2  1  -59.1984  -59.1370  -35.7183  -35.4579  -35.3447  -35.3439  -35.3219  -35.2691  -23.4312  -23.4097
         -13.3653  -11.5393  -10.8907   -7.2999   -7.0598   -6.8485   -6.6280   -5.4557   -5.0064   -4.2610
   -2.1886   -1.2556   -1.2154   -0.7165   -0.2156    0.1867    0.2054    0.3248    0.4859    1.7408
    4.0844    4.6086    5.5361    6.6984    8.6686   10.8168   12.3573   14.0037   15.6270   16.4613
   16.7861   17.0891   18.2151   18.4534   18.6385   18.8077   19.0735   20.6069   21.1079   23.7860
   26.2704   26.2980   26.9058   27.9284   29.4970   31.4723   32.1673   33.6182   34.8218   35.3094
   35.4974   37.4080   38.2205   38.6143   42.2383   43.1987   47.0095   50.4155   51.4328   53.0394
   54.7418   57.7628   59.0988   61.7029   63.4954   63.6057   67.3988   67.8689   68.7655   70.7352
   72.3602   78.1380   87.7633   90.3440   91.1201  137.0234  151.8012
   2  2  -59.1984  -59.1370  -35.7183  -35.4579  -35.3447  -35.3439  -35.3219  -35.2691  -23.4312  -23.4097
         -13.3653  -11.5393  -10.8907   -7.2999   -7.0598   -6.8485   -6.6280   -5.4557   -5.0064   -4.2610
   -2.1886   -1.2556   -1.2154   -0.7165   -0.2156    0.1867    0.2054    0.3248    0.4859    1.7408
    4.0844    4.6086    5.5361    6.6984    8.6686   10.8168   12.3573   14.0037   15.6270   16.4613
   16.7861   17.0891   18.2151   18.4534   18.6385   18.8077   19.0735   20.6069   21.1079   23.7860
   26.2704   26.2980   26.9058   27.9284   29.4970   31.4723   32.1673   33.6182   34.8218   35.3094
   35.4974   37.4080   38.2205   38.6143   42.2383   43.1987   47.0095   50.4155   51.4328   53.0394
   54.7418   57.7628   59.0988   61.7029   63.4954   63.6057   67.3988   67.8689   68.7655   70.7352
   72.3602   78.1380   87.7633   90.3440   91.1201  137.0234  151.8012
   3  1  -59.2163  -59.1435  -35.7525  -35.3734  -35.3120  -35.3119  -35.2604  -35.2603  -23.5237  -23.4920
         -13.7363  -11.7262  -10.6787   -6.8983   -6.8972   -6.5579   -6.5568   -5.8669   -3.9564   -3.9496
   -1.7048   -1.6975   -1.5961   -0.7485   -0.7399    0.0428    0.0487    0.0948    0.1010    0.8998
    4.3920    4.7702    4.7770    6.1010    7.8178   11.3746   12.6250   16.4966   17.0565   17.0867
   18.3278   19.4326   19.4609   19.8496   19.8799   20.3555   20.3672   20.7733   20.7836   22.4661
   25.7978   25.8271   26.9718   27.0025   27.5126   31.8306   31.8635   33.9999   34.6135   35.1406
   35.1696   37.0629   37.1026   38.8295   39.2319   44.1476   44.1700   52.3850   54.7598   54.7958
   55.9610   57.3476   60.0169   60.0449   66.4692   66.4832   67.2623   67.3093   71.1911   71.2268
   81.7775   85.8774   88.9475  103.0722  103.2632  140.6617  184.6145
   3  2  -59.2163  -59.1435  -35.7525  -35.3734  -35.3120  -35.3119  -35.2604  -35.2603  -23.5237  -23.4920
         -13.7363  -11.7262  -10.6787   -6.8983   -6.8972   -6.5579   -6.5568   -5.8669   -3.9564   -3.9496
   -1.7048   -1.6975   -1.5961   -0.7485   -0.7399    0.0428    0.0487    0.0948    0.1010    0.8998
    4.3920    4.7702    4.7770    6.1010    7.8178   11.3746   12.6250   16.4966   17.0565   17.0867
   18.3278   19.4326   19.4609   19.8496   19.8799   20.3555   20.3672   20.7733   20.7836   22.4661
   25.7978   25.8271   26.9718   27.0025   27.5126   31.8306   31.8635   33.9999   34.6135   35.1406
   35.1696   37.0629   37.1026   38.8295   39.2319   44.1476   44.1700   52.3850   54.7598   54.7958
   55.9610   57.3476   60.0169   60.0449   66.4692   66.4832   67.2623   67.3093   71.1911   71.2268
   81.7775   85.8774   88.9475  103.0722  103.2632  140.6617  184.6145
   4  1  -59.1395  -59.1270  -35.7390  -35.6789  -35.4627  -35.4290  -35.3718  -35.3042  -23.1620  -23.1512
         -12.1928  -11.1654  -10.9900   -8.8040   -8.3713   -6.9945   -6.8488   -6.2890   -4.9443   -4.4334
   -3.5284   -0.0441    0.2130    0.6288    0.6342    0.9723    1.0430    1.5171    1.8149    3.5057
    3.8170    4.0141    6.2107    6.3057    7.7388    9.7068   10.1720   11.5071   12.5980   12.6104
   13.9978   15.9832   16.3035   16.7604   17.1417   18.0482   18.7573   20.8852   23.3650   23.7120
   25.1069   26.7107   26.7744   29.1005   31.0576   31.4820   31.8119   33.1658   34.9721   35.3438
[...]
    3.8072    4.0175    6.2046    6.3005    7.7485    9.7062   10.1836   11.5039   12.5882   12.6105
   14.0047   16.0115   16.3269   16.7865   17.1337   18.0632   18.7554   20.8747   23.3529   23.7112
   25.1060   26.7221   26.7825   29.0994   31.0540   31.4863   31.8130   33.1615   34.9691   35.3454
   36.0996   37.4061   39.0429   40.3878   43.5830   44.9681   45.3582   45.8293   47.5867   47.7173
   52.3359   52.5313   59.5436   60.3572   63.1261   63.3280   63.5704   68.0794   70.9176   75.8402
   80.8783   83.3716   84.5890   87.4268   98.0316  115.3021  124.3967
  22  2  -59.1397  -59.1270  -35.7374  -35.6795  -35.4622  -35.4285  -35.3720  -35.3038  -23.1629  -23.1521
         -12.1946  -11.1666  -10.9915   -8.8016   -8.3698   -6.9931   -6.8478   -6.2905   -4.9443   -4.4247
   -3.5298   -0.0444    0.2140    0.6315    0.6333    0.9734    1.0389    1.5135    1.8074    3.4971
    3.8072    4.0175    6.2046    6.3005    7.7485    9.7062   10.1836   11.5039   12.5882   12.6105
   14.0047   16.0115   16.3269   16.7865   17.1337   18.0632   18.7554   20.8747   23.3529   23.7112
   25.1060   26.7221   26.7825   29.0994   31.0540   31.4863   31.8130   33.1615   34.9691   35.3454
   36.0996   37.4061   39.0429   40.3878   43.5830   44.9681   45.3582   45.8293   47.5867   47.7173
   52.3359   52.5313   59.5436   60.3572   63.1261   63.3280   63.5704   68.0794   70.9176   75.8402
   80.8783   83.3716   84.5890   87.4268   98.0316  115.3021  124.3967
siesta: Fermi energy =      -1.704704 eV

siesta: Program's energy decomposition (eV):
siesta: Ebs     =      -921.118868
siesta: Eions   =      6473.223125
siesta: Ena     =       984.888889
siesta: Ekin    =      2027.840785
siesta: Enl     =      -120.785971
siesta: Eso     =         0.000000
siesta: Edftu   =         0.000000
siesta: DEna    =        32.392423
siesta: DUscf   =         2.752401
siesta: DUext   =         0.000000
siesta: Ex      =      -731.344522
siesta: Ec      =       -55.362495
siesta: Exc     =      -786.707017
siesta: EbV     =         0.000000
siesta: eta*DQ  =         0.000000
siesta: Emadel  =         0.000000
siesta: Emeta   =         0.000000
siesta: Emolmec =         0.000000
siesta: Ekinion =         0.000000
siesta: Eharris =     -4332.841616
siesta: Etot    =     -4332.841616
siesta: FreeEng =     -4332.849233

siesta: Final energy (eV):
siesta:  Band Struct. =    -921.118868
siesta:       Kinetic =    2027.840785
siesta:       Hartree =   21383.187083
siesta:         Edftu =       0.000000
siesta:       Eso     =       0.000000
siesta:    Ext. field =       0.000000
siesta:         Exch. =    -731.344522
siesta:         Corr. =     -55.362495
siesta:     Bulk bias =       0.000000
siesta:   Exch.-corr. =    -786.707017
siesta:  Ion-electron =  -44835.247864
siesta:       Ion-ion =   17878.085397
siesta:       Ekinion =       0.000000
siesta: D3 dispersion =       0.000000
siesta:         Total =   -4332.841616
siesta:         Fermi =      -1.704704

siesta: Stress tensor (static) (eV/Ang**3):
siesta:     0.000129    0.000065   -0.000028
siesta:     0.000065    0.000204    0.000016
siesta:    -0.000028    0.000016   -0.000235

siesta: Constrained stress tensor (static) (eV/Ang**3):
siesta:     0.000129    0.000065   -0.000028
siesta:     0.000065    0.000204    0.000016
siesta:    -0.000028    0.000016   -0.000235

siesta: Cell volume =        190.331315 Ang**3

siesta: Pressure (static):
siesta:                Solid            Molecule  Units
siesta:          -0.00000036          0.00000226  Ry/Bohr**3
siesta:          -0.00003269          0.00020759  eV/Ang**3
siesta:          -0.05237418          0.33259030  kBar
(Free)E+ p_basis*V_orbitals  =       -4329.561757
(Free)Eharris+ p_basis*V_orbitals  =       -4329.561757

siesta: Electric dipole (a.u.)  =    0.000000   -0.000000   -0.000790
siesta: Electric dipole (Debye) =    0.000000   -0.000000   -0.002009

dhscf: Vacuum level (max, mean) =   -1.350817   -1.380221 eV

cite: Please see "Ti2CTx.bib" for an exhaustive BiBTeX file.
cite: Please clearly indicate Siesta version in published work: 5.2.0-12-gaf738a07d
cite: This calculation has made use of the following articles
cite: which are encouraged to be cited in a published work.
        Primary SIESTA paper
          DOI: www.doi.org/10.1088/0953-8984/14/11/302

Routine            Calls   Time/call    Tot.time        %
siesta                 1     754.157     754.157   100.00
Setup                  1       0.272       0.272     0.04
bands                  1       0.000       0.000     0.00
KSV_init               1       0.000       0.000     0.00
IterGeom              61      12.356     753.728    99.94
geom_init             61       1.186      72.322     9.59
state_init            61       0.133       8.115     1.08
hsparse               61       0.010       0.585     0.08
overlap               61       0.116       7.104     0.94
Setup_H0              61       0.764      46.589     6.18
naefs                122       0.000       0.017     0.00
dnaefs               122       0.000       0.009     0.00
MolMec               122       0.000       0.000     0.00
kinefsm              122       0.063       7.667     1.02
nlefsm               122       0.227      27.692     3.67
DHSCF_Init            61       0.245      14.955     1.98
DHSCF1                61       0.012       0.735     0.10
InitMesh              61       0.012       0.732     0.10
INITMESH              61       0.000       0.000     0.00
DHSCF2                61       0.233      14.219     1.89
REMESH                61       0.038       2.318     0.31
REORD               6068       0.000       0.758     0.10
PHION                 61       0.164      10.004     1.33
COMM_BSC           10186       0.000       0.928     0.12
POISON              1304       0.006       8.315     1.10
fft                 2608       0.003       7.405     0.98
setup_H             1181       0.290     342.639    45.43
DHSCF               1243       0.317     393.580    52.19
DHSCF3              1243       0.290     359.864    47.72
rhoofd              1243       0.128     159.073    21.09
XC                  1243       0.035      43.197     5.73
GXC-CellXC          1243       0.034      42.775     5.67
gridxc@cellXC       1243       0.034      42.769     5.67
vmat                1242       0.118     146.509    19.43
IterSCF             1120       0.559     625.554    82.95
compute_dm          1120       0.265     297.098    39.39
diagon              1120       0.265     296.730    39.35
c-eigval           49280       0.002      93.499    12.40
c-buildHS          49280       0.001      26.521     3.52
cdiag              98560       0.002     185.035    24.54
cdiag1             98560       0.000      12.415     1.65
cdiag2             98560       0.000      45.498     6.03
cdiag3             98560       0.001     121.701    16.14
c-eigvec           49280       0.003     144.594    19.17
cdiag4             49280       0.000       4.442     0.59
c-buildD           49280       0.001      57.868     7.67
MIXER               1059       0.002       1.951     0.26
PostSCF               61       0.915      55.795     7.40
FINAL_HF              61       0.914      55.757     7.39
DHSCF4                61       0.553      33.714     4.47
dfscf                 61       0.524      31.959     4.24
overfsm               61       0.010       0.628     0.08
writeHSX              61       0.001       0.057     0.01
state_analysis        61       0.000       0.013     0.00
siesta_move           61       0.000       0.004     0.00
Analysis               1       0.156       0.156     0.02
optical                1       0.000       0.000     0.00

>> End of run:  20-JAN-2025   4:24:35
Job completed