 NOTE: Siesta V5 introduces some new defaults for basis-set generation
 NOTE: which might lead to slightly different numerical results.
 NOTE: Please see the manual for full details and compatibility measures.

reinit: Reading from standard input
reinit: Dumping input in INPUT_TMP.47645
************************** Dump of input data file ****************************
SystemName	Ti2NTx
SystemLabel	Ti2NTx
DM.InitialSpinPol	0.2
DM.MixingWeight	0.1
DM.NumberPulay	5
DM.Tolerance	1.0E-4
DM.UseSaveDM	True
ElectronicTemperature	300 K
MD.ConstantVolume	False
MD.MaxForceTol	0.04 eV/Ang
MD.MaxStressTol	1.0 GPa
MD.NumCGsteps	100
MD.TypeOfRun	CG
MD.VariableCell	True
MaxSCFIterations	200
PAO.BasisSize	DZP
PAO.EnergyShift	0.01 Ry
PAO.SoftDefault	True
PAO.SplitNorm	0.15
SCF.DM.Tolerance	1.0E-4
SCF.EDM.Tolerance	1.0E-4 eV
SCF.H.Tolerance	1.0E-4 eV
SaveDeltaRho	True
SaveElectrostaticPotential	True
SaveRho	True
SolutionMethod	diagon
WriteDenchar	True
WriteEigenvalues	True
XC.functional	GGA
XML.Write	True
SCFMustConverge	True
Spin	polarized
XC.functional	GGA
XC.authors	PW91
MeshCutoff	2040.8539518275434	eV
PAO.EnergyShift	0.01	eV
NumberOfSpecies	4
NumberOfAtoms	7
%block ChemicalSpecieslabel
    1 22 Ti.1 Ti.1.psml
    2 7 N.2 N.2.psml
    3 8 O.3 O.3.psml
    4 1 H.4 H.4.psml
%endblock ChemicalSpecieslabel
%block PAO.BasisSizes
    Ti.1	DZP
    N.2	DZP
    O.3	DZP
    H.4	DZP
%endblock PAO.BasisSizes
LatticeConstant	1.0 Ang
%block LatticeVectors
    3.2 0.0 0.0
    -1.6 2.7712812921102037 0.0
    0.0 0.0 25.0
%endblock LatticeVectors
AtomicCoordinatesFormat	Ang
%block AtomicCoordinatesAndAtomicSpecies
    -1.480297366166875e-17 1.8475208614068024 10.0 1
    1.5999999999999999 0.9237604307034012 11.25 1
    0.0 0.0 12.5 2
    -1.480297366166875e-17 1.8475208614068024 13.750000000000002 3
    1.5999999999999999 0.9237604307034012 8.75 3
    -1.480297366166875e-17 1.8475208614068024 15.0 4
    1.5999999999999999 0.9237604307034012 7.5 4
%endblock AtomicCoordinatesAndAtomicSpecies
%block DM.InitSpin
%endblock DM.InitSpin
#KPoint grid
%block kgrid_Monkhorst_Pack
     6       0       0  0.0
     0       6       0  0.0
     0       0       1  0.0
%endblock kgrid_Monkhorst_Pack
************************** End of input data file *****************************
*** WARNING:  FDF module: fdf_read: block DM.InitSpin is empty...

reinit: -----------------------------------------------------------------------
reinit: System Name: Ti2NTx
reinit: -----------------------------------------------------------------------
reinit: System Label: Ti2NTx
reinit: -----------------------------------------------------------------------

NOTE on units for spin output:
{S} is the spin magnetic moment, in units of the Bohr magneton,
assuming a g-factor for the electron spin of exactly 2.
The spin magnetic moment is then numerically equal to the charge inbalance,
in units of electrons, between the spin-up and -down channels.

initatom: Reading input for the pseudopotentials and atomic orbitals ----------
Species number:   1 Atomic number:   22 Label: Ti.1
Species number:   2 Atomic number:    7 Label: N.2
Species number:   3 Atomic number:    8 Label: O.3
Species number:   4 Atomic number:    1 Label: H.4

Ground state valence configuration (from tables):   4s02  4p00  3d02  4f00
Ground state valence configuration (from tables):   2s02  2p03  3d00  4f00
Ground state valence configuration (from tables):   2s02  2p04  3d00  4f00
Ground state valence configuration (from tables):   1s01  2p00  3d00  4f00

---- Processing specs for species: Ti.1
Reading pseudopotential information in PSML from:
  Ti.1.psml
PSML file version: 1.1
GGA--PBE XC_GGA_X_PBE--XC_GGA_C_PBE pb
PSML uuid: caed23e0-be41-11e7-4603-0bd897f88bea
Semicore shell(s) with  8 electrons included in the valence for Ti.1

---- Processing specs for species: N.2
Reading pseudopotential information in PSML from:
  N.2.psml
PSML file version: 1.1
GGA--PBE XC_GGA_X_PBE--XC_GGA_C_PBE pb
PSML uuid: 31bde650-be41-11e7-78a7-66593edf4b14

---- Processing specs for species: O.3
Reading pseudopotential information in PSML from:
  O.3.psml
PSML file version: 1.1
GGA--PBE XC_GGA_X_PBE--XC_GGA_C_PBE pb
PSML uuid: 3cff85a0-be41-11e7-6c5c-1b1fe64d18ef

---- Processing specs for species: H.4
Reading pseudopotential information in PSML from:
  H.4.psml
PSML file version: 1.1
GGA--PBE XC_GGA_X_PBE--XC_GGA_C_PBE pb
PSML uuid: f95fa9b0-be40-11e7-634a-9594ffff953f
resizes: Read basis size for species Ti.1 = dzp
resizes: Read basis size for species N.2 = dzp
resizes: Read basis size for species O.3 = dzp
resizes: Read basis size for species H.4 = dzp

---- Pseudopotential check for Ti

Pseudized shells:
3s( 2.00) rc: 1.36
3p( 6.00) rc: 1.31
3d( 2.00) rc: 1.66
Valence configuration for ps generation: 3s:3p:3d:4s: Total charge:  12.000000
Semicore shell(s): 3s 3p
Fallback to non-perturbative polarization scheme for Ti.1
Please see the manual if this is not desired in principle

[...]

Pseudized shells:
2s( 2.00) rc: 1.21
2p( 3.00) rc: 1.36
Valence configuration for ps generation: 2s:2p: Total charge:   5.000000

[...]

Pseudized shells:
2s( 2.00) rc: 1.36
2p( 4.00) rc: 1.46
3d( 0.00) rc: 1.26
Valence configuration for ps generation: 2s:2p: Total charge:   6.000000

---- Pseudopotential check for H

Pseudized shells:
1s( 1.00) rc: 1.01
2p( 0.00) rc: 0.71
Valence configuration for ps generation: 1s: Total charge:   1.000000
For Ti.1, standard SIESTA heuristics set lmxkb to 3
 (one more than the basis l, including polarization orbitals).
Use PS.lmax or PS.KBprojectors blocks to override.
For N.2, standard SIESTA heuristics set lmxkb to 3
 (one more than the basis l, including polarization orbitals).
Use PS.lmax or PS.KBprojectors blocks to override.
For O.3, standard SIESTA heuristics set lmxkb to 3
 (one more than the basis l, including polarization orbitals).
Use PS.lmax or PS.KBprojectors blocks to override.
For H.4, standard SIESTA heuristics set lmxkb to 2
 (one more than the basis l, including polarization orbitals).
Use PS.lmax or PS.KBprojectors blocks to override.
Ti.1.psml pseudopotential only contains V_ls up to l=2 -- lmxkb reset.
N.2.psml pseudopotential only contains V_ls up to l=1 -- lmxkb reset.
O.3.psml pseudopotential only contains V_ls up to l=2 -- lmxkb reset.
H.4.psml pseudopotential only contains V_ls up to l=1 -- lmxkb reset.

<basis_specs>
Ti.1                 Z=  22    Mass=  47.867        Charge= 0.17977+309
Lmxo=2 Lmxkb= 2    BasisType=split      Semic=T
L=0  Nsemic=1  Cnfigmx=4
          i=1  nzeta=1  polorb=0  (3s)  (semicore shell)
            splnorm:   0.15000
               vcte:    40.000
               rinn:  -0.90000
               qcoe:    0.0000
               qyuk:    0.0000
               qwid:   0.10000E-01
                rcs:    0.0000
            lambdas:    1.0000
          i=2  nzeta=2  polorb=0  (4s)  (to be polarized non-perturbatively)
            splnorm:   0.15000
               vcte:    40.000
               rinn:  -0.90000
               qcoe:    0.0000
               qyuk:    0.0000
               qwid:   0.10000E-01
                rcs:    0.0000      0.0000
            lambdas:    1.0000      1.0000
L=1  Nsemic=1  Cnfigmx=4
          i=1  nzeta=1  polorb=0  (3p)  (semicore shell)
            splnorm:   0.15000
               vcte:    40.000
               rinn:  -0.90000
               qcoe:    0.0000
               qyuk:    0.0000
               qwid:   0.10000E-01
                rcs:    0.0000
            lambdas:    1.0000
          i=2  nzeta=1  polorb=0  (4p)  (non-perturbative polarization shell)
            splnorm:   0.15000
               vcte:    40.000
               rinn:  -0.90000
               qcoe:    0.0000
               qyuk:    0.0000
               qwid:   0.10000E-01
                rcs:    0.0000
            lambdas:    1.0000
L=2  Nsemic=0  Cnfigmx=3
          i=1  nzeta=2  polorb=0  (3d)
            splnorm:   0.15000
               vcte:    40.000
               rinn:  -0.90000
               qcoe:    0.0000
               qyuk:    0.0000
               qwid:   0.10000E-01
                rcs:    0.0000      0.0000
            lambdas:    1.0000      1.0000
L=0  Nkbl=2  erefs: 0.17977+309 0.17977+309
L=1  Nkbl=2  erefs: 0.17977+309 0.17977+309
L=2  Nkbl=1  erefs: 0.17977+309
</basis_specs>

Using PAO.SplitTailNorm
atom: Called for Ti.1                  (Z =  22)
Maximum radius (at nrval) set to   50.00000 8518

read_vps: Pseudopotential generation method:
read_vps: ONCVPSP-3.Hamann's oncvpsp
Valence charge in pseudo generation:   12.00000

read_vps: Pseudopotential includes a core correction:
read_vps: Pseudo-core for xc-correction

xc_check: Exchange-correlation functional:
xc_check: GGA Perdew-Wang 1991
xc_check: WARNING: Pseudopotential generated with GGA PBE functional
Got Vlocal (oncv-fit) from psml data
Choosing vlocal chloc cutoff:  3.029916
qtot up to nchloc:   12.00014688
atom: Maximum radius for chlocal:    3.02992
atom: Maximum radius for r*vlocal+2*Zval:    3.02992
Reading KB projs from Ti.1 psml data
Using scalar-relativistic projectors in PSML file

PSML: Kleinman-Bylander projectors:
   l= 0   rc=  1.375180   Ekb= 22.724697
   l= 0   rc=  1.375180   Ekb=  2.527278
   l= 1   rc=  1.326200   Ekb=  3.950805
   l= 1   rc=  1.327537   Ekb= -0.169333
   l= 2   rc=  1.683555   Ekb=-10.372181
   l= 2   rc=  1.683555   Ekb= -2.954901

PSML: Total number of  Kleinman-Bylander projectors:  18
atom: -------------------------------------------------------------------------

atom: SANKEY-TYPE ORBITALS:
atom: Selected multiple-zeta basis: split

SPLIT: Orbitals with angular momentum L= 0

SPLIT: Basis orbitals for state 3s

SPLIT: PAO cut-off radius determined from an
SPLIT: energy shift=  0.010000 Ry
Split based on tail norm

   izeta = 1
                 lambda =    1.000000
                     rc =    2.838606
                 energy =   -4.597225
                kinetic =    2.273030
    potential(screened) =   -6.870254
       potential(ionic) =  -22.987156

[...]

   izeta = 2
                 rmatch =    5.674993
              splitnorm =    0.150000
                 energy =   -0.207882
                kinetic =    1.274420
    potential(screened) =   -1.482302
       potential(ionic) =  -10.515388

[...]

SPLIT: Basis orbitals for state 3p

[...]

SPLIT: Basis orbitals for state 4p
SPLIT: Non-perturbative polarization orbs for state 4s
SPLIT: rc(1st zeta) (re)set to: 7.6104 (expansion factor: 1.0000)
Split based on tail norm

[...]

SPLIT: Basis orbitals for state 3d

[...]

   izeta = 2
                 rmatch =    3.458873
              splitnorm =    0.150000
                 energy =   -0.200848
                kinetic =    8.180935
    potential(screened) =   -8.381783
       potential(ionic) =  -23.144487
atom: Total number of Sankey-type orbitals: 19

atm_pop: Valence configuration (for local Pseudopot. screening):
 3s( 2.00) 4s( 2.00)
 3p( 6.00) 4p( 0.00)
 3d( 2.00)
Vna: chval, zval:   12.00000  12.00000

Vna:  Cut-off radius for the neutral-atom potential:   7.610407
comcore: Pseudo-core radius Rcore=  1.766828

atom: _________________________________________________________________________

<basis_specs>
[...]
   scf:    8    -4452.796018    -4452.796019    -4452.798307  0.000035 -1.182745  0.000692
     spin moment: {S} , |S| = {        0.0        0.0    0.00000 }     0.00000
   scf:    9    -4452.796019    -4452.796019    -4452.798307  0.000001 -1.182743  0.000454
     spin moment: {S} , |S| = {        0.0        0.0    0.00000 }     0.00000
   scf:   10    -4452.796019    -4452.796019    -4452.798307  0.000003 -1.182756  0.000289
     spin moment: {S} , |S| = {        0.0        0.0    0.00000 }     0.00000
   scf:   11    -4452.796019    -4452.796019    -4452.798307  0.000001 -1.182765  0.000199
     spin moment: {S} , |S| = {        0.0        0.0    0.00000 }     0.00000
   scf:   12    -4452.796019    -4452.796019    -4452.798307  0.000003 -1.182785  0.000115
     spin moment: {S} , |S| = {        0.0        0.0    0.00000 }     0.00000
   scf:   13    -4452.796019    -4452.796019    -4452.798307  0.000002 -1.182798  0.000050
     spin moment: {S} , |S| = {        0.0        0.0    0.00000 }     0.00000

SCF Convergence by DM+H criterion
max |DM_out - DM_in|         :     0.0000018625
max |H_out - H_in|      (eV) :     0.0000498260
SCF cycle converged after 13 iterations

Using DM_out to compute the final energy and forces
No. of atoms with KB's overlaping orbs in proc 0. Max # of overlaps:      65     253

siesta: E_KS(eV) =            -4452.7960

siesta: Atomic forces (eV/Ang):
   Tot    0.002263   -0.001307    0.005401
   Max    0.014173
   Res    0.004422    sqrt( Sum f_i^2 / 3N )
   Max    0.014173    constrained

Stress tensor Voigt[x,y,z,yz,xz,xy] (kbar):        0.04        0.06       -1.22        0.03       -0.05        0.02
(Free)E + p*V (eV/cell)    -4452.7553
Target enthalpy (eV/cell)    -4452.7983

siesta: Stress tensor (static) (eV/Ang**3):
         0.000022    0.000011   -0.000033
         0.000011    0.000035    0.000019
        -0.000033    0.000019   -0.000759

siesta: Pressure (static):          0.37461383  kBar

siesta: Stress tensor (total) (eV/Ang**3):
         0.000022    0.000011   -0.000033
         0.000011    0.000035    0.000019
        -0.000033    0.000019   -0.000759

siesta: Pressure (total):          0.37461383  kBar

outcoor: Relaxed atomic coordinates (Ang):
    0.00029162    1.75179391    9.24787364   1       1  Ti.1
    1.51911239    0.87490234   11.47450521   1       2  Ti.1
    0.00109872   -0.00063431   10.36052642   2       3  N.2
    0.00055930    1.75163940   12.73994307   3       4  O.3
    1.51876141    0.87510499    7.98208768   3       5  O.3
    0.00062172    1.75160338   13.71951697   4       6  H.4
    1.51840796    0.87530907    7.00247933   4       7  H.4

outcell: Unit cell vectors (Ang):
        3.036371   -0.001088    0.000282
       -1.519128    2.629031   -0.000282
        0.002206   -0.001274   23.026288

outcell: Cell vector modules (Ang)   :    3.036372    3.036372   23.026288
outcell: Cell angles (23,13,12) (deg):     90.0108     89.9892    120.0410
outcell: Cell volume (Ang**3)        :    183.7742

siesta: Eigenvalues (eV):
  ik is       eps
   1  1  -59.0889  -59.0454  -35.6926  -35.6110  -35.4111  -35.3730  -35.2454  -35.2286  -23.3093  -23.3042
         -17.1336  -11.4581  -11.3329   -8.5631   -8.1693   -7.4069   -7.2556   -6.8662   -6.4819   -5.9998
   -3.2802   -0.5223   -0.3562   -0.0859    0.1613    0.5304    0.9141    1.0927    1.1995    2.5357
    2.8404    3.2405    6.2298    7.5552    7.6288    8.7447   11.0535   11.7404   12.9668   13.7539
   15.4179   16.8848   17.2292   17.4534   17.5387   17.8212   17.9357   21.4132   22.3999   23.2959
   25.5672   27.5661   28.1879   30.3222   31.0161   31.6559   32.9913   33.5937   34.0871   34.6408
   35.0373   35.9587   38.5329   40.7793   42.9276   43.6157   46.1251   49.4035   50.5332   50.9961
   53.9602   55.1923   60.6551   60.7303   61.8292   64.2264   64.5069   68.0866   69.4055   74.4124
   74.5206   81.3876   85.5634   91.5450   93.5631   95.8663  119.4413
   1  2  -59.0889  -59.0454  -35.6926  -35.6110  -35.4111  -35.3730  -35.2454  -35.2286  -23.3093  -23.3042
         -17.1336  -11.4581  -11.3329   -8.5631   -8.1693   -7.4069   -7.2556   -6.8662   -6.4819   -5.9998
   -3.2802   -0.5223   -0.3562   -0.0859    0.1613    0.5304    0.9141    1.0927    1.1995    2.5357
    2.8404    3.2405    6.2298    7.5552    7.6288    8.7447   11.0535   11.7404   12.9668   13.7539
   15.4179   16.8848   17.2292   17.4534   17.5387   17.8212   17.9357   21.4132   22.3999   23.2959
   25.5672   27.5661   28.1879   30.3222   31.0161   31.6559   32.9913   33.5937   34.0871   34.6408
   35.0373   35.9587   38.5329   40.7793   42.9276   43.6157   46.1251   49.4035   50.5332   50.9961
   53.9602   55.1923   60.6551   60.7303   61.8292   64.2264   64.5069   68.0866   69.4055   74.4124
   74.5206   81.3876   85.5634   91.5450   93.5631   95.8663  119.4413
   2  1  -59.1318  -59.0587  -35.6770  -35.4165  -35.3071  -35.3042  -35.2198  -35.2167  -23.5143  -23.4836
         -17.4679  -11.7345  -11.4470   -7.7490   -7.4167   -7.3268   -6.7036   -6.4726   -6.4590   -5.6751
   -2.3264   -1.3180   -1.2814   -0.7206   -0.1529   -0.0051    0.2260    0.3352    0.4151    1.2927
    2.8416    3.3350    5.1173    6.2348    6.3775   10.4577   12.1860   14.6375   15.9156   16.5935
   17.2550   17.6941   18.8306   18.9464   18.9652   19.2059   19.5951   21.0415   21.5876   24.1892
   26.8726   26.9931   27.3356   28.6085   29.3493   31.8976   32.6663   33.0708   33.5212   33.5483
   34.1760   36.0792   39.1619   39.4142   42.7006   43.1050   48.1032   49.5522   50.9162   53.9660
   55.6434   58.9606   60.4590   61.1575   65.1507   65.5676   66.3443   68.8314   71.1752   71.9190
   73.3219   83.8261   86.9332   86.9912   90.5117  117.3467  158.3083
   2  2  -59.1318  -59.0587  -35.6770  -35.4165  -35.3071  -35.3042  -35.2198  -35.2167  -23.5143  -23.4836
         -17.4679  -11.7345  -11.4470   -7.7490   -7.4167   -7.3268   -6.7036   -6.4726   -6.4590   -5.6751
   -2.3264   -1.3180   -1.2814   -0.7206   -0.1529   -0.0051    0.2260    0.3352    0.4151    1.2927
    2.8416    3.3350    5.1173    6.2348    6.3775   10.4577   12.1860   14.6375   15.9156   16.5935
   17.2550   17.6941   18.8306   18.9464   18.9652   19.2059   19.5951   21.0415   21.5876   24.1892
   26.8726   26.9931   27.3356   28.6085   29.3493   31.8976   32.6663   33.0708   33.5212   33.5483
   34.1760   36.0792   39.1619   39.4142   42.7006   43.1050   48.1032   49.5522   50.9162   53.9660
   55.6434   58.9606   60.4590   61.1575   65.1507   65.5676   66.3443   68.8314   71.1752   71.9190
   73.3219   83.8261   86.9332   86.9912   90.5117  117.3467  158.3083
   3  1  -59.1522  -59.0678  -35.7143  -35.2695  -35.2679  -35.2486  -35.2115  -35.2097  -23.6225  -23.5734
         -17.6339  -11.9611  -11.3632   -7.4560   -7.4527   -7.1301   -6.6324   -6.6322   -5.3231   -5.3217
   -1.7543   -1.7456   -1.6110   -0.8384   -0.6698    0.0217    0.0294    0.0633    0.2137    0.2175
    3.3626    3.3671    4.2725    4.8660    5.5336   11.0406   12.7768   16.4972   18.2534   18.2776
   18.7918   19.7698   19.7913   20.6397   20.6659   20.7660   20.7808   21.3797   21.3987   22.5274
   26.3794   26.4012   27.4055   27.6589   27.6758   32.4999   32.9148   32.9454   33.1429   33.1770
   33.4803   37.5105   37.8747   37.8952   40.4584   45.4014   45.4319   50.8188   50.8564   54.2366
   57.7532   58.8419   61.5210   61.5347   64.0889   64.1405   66.3103   70.0602   70.0968   73.8278
   73.8702   85.6425   85.6642   86.1966   88.6720  135.4024  193.3358
   3  2  -59.1522  -59.0678  -35.7143  -35.2695  -35.2679  -35.2486  -35.2115  -35.2097  -23.6225  -23.5734
         -17.6339  -11.9611  -11.3632   -7.4560   -7.4527   -7.1301   -6.6324   -6.6322   -5.3231   -5.3217
   -1.7543   -1.7456   -1.6110   -0.8384   -0.6698    0.0217    0.0294    0.0633    0.2137    0.2175
    3.3626    3.3671    4.2725    4.8660    5.5336   11.0406   12.7768   16.4972   18.2534   18.2776
   18.7918   19.7698   19.7913   20.6397   20.6659   20.7660   20.7808   21.3797   21.3987   22.5274
   26.3794   26.4012   27.4055   27.6589   27.6758   32.4999   32.9148   32.9454   33.1429   33.1770
   33.4803   37.5105   37.8747   37.8952   40.4584   45.4014   45.4319   50.8188   50.8564   54.2366
   57.7532   58.8419   61.5210   61.5347   64.0889   64.1405   66.3103   70.0602   70.0968   73.8278
   73.8702   85.6425   85.6642   86.1966   88.6720  135.4024  193.3358
   4  1  -59.0664  -59.0448  -35.7890  -35.6728  -35.4037  -35.3816  -35.2593  -35.2553  -23.2168  -23.2097
         -16.9616  -11.3258  -11.2044   -9.2312   -8.5452   -7.5081   -7.3536   -6.9272   -6.4794   -6.0018
   -3.6786   -0.1458    0.1754    0.4583    0.7157    0.7607    1.1392    1.3933    1.6060    3.1461
    3.3067    3.6871    6.0123    6.3302    6.8757    9.5135    9.9342   11.1967   11.6407   12.8055
   14.7089   16.6547   16.7085   16.7487   17.6578   17.8577   19.0355   20.9414   23.1037   24.1469
   25.5952   26.8142   28.2682   30.1134   31.8991   31.9721   33.2298   34.2785   35.4548   35.8949
[...]
    3.3011    3.6804    6.0098    6.3257    6.8777    9.5156    9.9325   11.2003   11.6310   12.8043
   14.7137   16.6753   16.7300   16.7417   17.6867   17.8760   19.0342   20.9337   23.0937   24.1478
   25.5907   26.8272   28.2791   30.1158   31.8959   31.9777   33.2269   34.2667   35.4472   35.8975
   36.2013   36.3411   40.1927   41.2668   43.7509   45.8779   46.1066   47.3942   47.6962   47.8668
   51.4662   54.0940   60.9187   60.9271   61.8110   64.3286   66.3740   66.7931   67.1793   68.9415
   78.9274   80.8865   84.8003   88.4600   98.5103  110.0040  111.6748
  22  2  -59.0667  -59.0448  -35.7893  -35.6731  -35.4020  -35.3826  -35.2576  -35.2550  -23.2176  -23.2105
         -16.9628  -11.3265  -11.2052   -9.2295   -8.5435   -7.5079   -7.3500   -6.9255   -6.4795   -5.9978
   -3.6804   -0.1485    0.1765    0.4551    0.7179    0.7593    1.1405    1.3901    1.6010    3.1475
    3.3011    3.6804    6.0098    6.3257    6.8777    9.5156    9.9325   11.2003   11.6310   12.8043
   14.7137   16.6753   16.7300   16.7417   17.6867   17.8760   19.0342   20.9337   23.0937   24.1478
   25.5907   26.8272   28.2791   30.1158   31.8959   31.9777   33.2269   34.2667   35.4472   35.8975
   36.2013   36.3411   40.1927   41.2668   43.7509   45.8779   46.1066   47.3942   47.6962   47.8668
   51.4662   54.0940   60.9187   60.9271   61.8110   64.3286   66.3740   66.7931   67.1793   68.9415
   78.9274   80.8865   84.8003   88.4600   98.5103  110.0040  111.6748
siesta: Fermi energy =      -1.182798 eV

siesta: Program's energy decomposition (eV):
siesta: Ebs     =      -942.987934
siesta: Eions   =      6642.422589
siesta: Ena     =       996.819972
siesta: Ekin    =      2118.749355
siesta: Enl     =      -145.554473
siesta: Eso     =         0.000000
siesta: Edftu   =         0.000000
siesta: DEna    =        30.906526
siesta: DUscf   =         2.234899
siesta: DUext   =         0.000000
siesta: Ex      =      -756.993226
siesta: Ec      =       -56.536483
siesta: Exc     =      -813.529709
siesta: EbV     =         0.000000
siesta: eta*DQ  =         0.000000
siesta: Emadel  =         0.000000
siesta: Emeta   =         0.000000
siesta: Emolmec =         0.000000
siesta: Ekinion =         0.000000
siesta: Eharris =     -4452.796019
siesta: Etot    =     -4452.796019
siesta: FreeEng =     -4452.798307

siesta: Final energy (eV):
siesta:  Band Struct. =    -942.987934
siesta:       Kinetic =    2118.749355
siesta:       Hartree =   22892.377114
siesta:         Edftu =       0.000000
siesta:       Eso     =       0.000000
siesta:    Ext. field =       0.000000
siesta:         Exch. =    -756.993226
siesta:         Corr. =     -56.536483
siesta:     Bulk bias =       0.000000
siesta:   Exch.-corr. =    -813.529709
siesta:  Ion-electron =  -47935.401592
siesta:       Ion-ion =   19285.008813
siesta:       Ekinion =       0.000000
siesta: D3 dispersion =       0.000000
siesta:         Total =   -4452.796019
siesta:         Fermi =      -1.182798

siesta: Stress tensor (static) (eV/Ang**3):
siesta:     0.000022    0.000011   -0.000033
siesta:     0.000011    0.000035    0.000019
siesta:    -0.000033    0.000019   -0.000759

siesta: Constrained stress tensor (static) (eV/Ang**3):
siesta:     0.000022    0.000011   -0.000033
siesta:     0.000011    0.000035    0.000019
siesta:    -0.000033    0.000019   -0.000759

siesta: Cell volume =        183.774238 Ang**3

siesta: Pressure (static):
siesta:                Solid            Molecule  Units
siesta:           0.00000255          0.00000405  Ry/Bohr**3
siesta:           0.00023382          0.00037192  eV/Ang**3
siesta:           0.37461383          0.59588621  kBar
(Free)E+ p_basis*V_orbitals  =       -4449.637002
(Free)Eharris+ p_basis*V_orbitals  =       -4449.637002

siesta: Electric dipole (a.u.)  =   -0.000000    0.000000    0.000112
siesta: Electric dipole (Debye) =   -0.000000    0.000000    0.000284

dhscf: Vacuum level (max, mean) =   -1.268019   -1.288671 eV

cite: Please see "Ti2NTx.bib" for an exhaustive BiBTeX file.
cite: Please clearly indicate Siesta version in published work: 5.2.0-12-gaf738a07d
cite: This calculation has made use of the following articles
cite: which are encouraged to be cited in a published work.
        Primary SIESTA paper
          DOI: www.doi.org/10.1088/0953-8984/14/11/302

Routine            Calls   Time/call    Tot.time        %
siesta                 1     736.844     736.844   100.00
Setup                  1       0.271       0.271     0.04
bands                  1       0.000       0.000     0.00
KSV_init               1       0.000       0.000     0.00
IterGeom              58      12.697     736.408    99.94
geom_init             58       1.203      69.745     9.47
state_init            58       0.142       8.209     1.11
hsparse               58       0.011       0.664     0.09
overlap               58       0.122       7.089     0.96
Setup_H0              58       0.786      45.569     6.18
naefs                116       0.000       0.019     0.00
dnaefs               116       0.000       0.009     0.00
MolMec               116       0.000       0.001     0.00
kinefsm              116       0.066       7.600     1.03
nlefsm               116       0.241      27.993     3.80
DHSCF_Init            58       0.240      13.914     1.89
DHSCF1                58       0.012       0.677     0.09
InitMesh              58       0.012       0.673     0.09
INITMESH              58       0.000       0.000     0.00
DHSCF2                58       0.228      13.237     1.80
REMESH                58       0.038       2.230     0.30
REORD               5950       0.000       0.693     0.09
PHION                 58       0.160       9.265     1.26
COMM_BSC           10046       0.000       0.856     0.12
POISON              1285       0.006       7.438     1.01
fft                 2570       0.003       6.621     0.90
setup_H             1168       0.275     321.277    43.60
DHSCF               1227       0.300     368.216    49.97
DHSCF3              1227       0.274     336.721    45.70
rhoofd              1227       0.122     149.136    20.24
XC                  1227       0.032      39.772     5.40
GXC-CellXC          1227       0.032      39.391     5.35
gridxc@cellXC       1227       0.032      39.385     5.35
vmat                1226       0.112     137.814    18.70
IterSCF             1110       0.554     614.568    83.41
compute_dm          1110       0.275     305.526    41.46
diagon              1110       0.275     305.123    41.41
c-eigval           48840       0.002      95.590    12.97
c-buildHS          48840       0.001      28.985     3.93
cdiag              97680       0.002     184.124    24.99
cdiag1             97680       0.000      12.332     1.67
cdiag2             97680       0.000      45.159     6.13
cdiag3             97680       0.001     121.103    16.44
c-eigvec           48840       0.003     146.395    19.87
cdiag4             48840       0.000       4.525     0.61
c-buildD           48840       0.001      62.346     8.46
MIXER               1052       0.002       2.145     0.29
PostSCF               58       0.897      52.034     7.06
FINAL_HF              58       0.897      51.997     7.06
DHSCF4                58       0.543      31.493     4.27
dfscf                 58       0.515      29.878     4.05
overfsm               58       0.011       0.621     0.08
writeHSX              58       0.001       0.061     0.01
state_analysis        58       0.000       0.013     0.00
siesta_move           58       0.000       0.004     0.00
Analysis               1       0.165       0.165     0.02
optical                1       0.000       0.000     0.00

>> End of run:  20-JAN-2025   5:10:11
Job completed